c colouring generated by benchmark framework
p edge 1000 245000
v 1 21
v 2 20
v 3 109
v 4 73
v 5 37
v 6 93
v 7 59
v 8 117
v 9 15
v 10 2
v 11 67
v 12 58
v 13 0
v 14 45
v 15 131
v 16 37
v 17 15
v 18 121
v 19 108
v 20 22
v 21 51
v 22 40
v 23 115
v 24 47
v 25 69
v 26 46
v 27 134
v 28 39
v 29 17
v 30 49
v 31 103
v 32 27
v 33 91
v 34 78
v 35 85
v 36 31
v 37 42
v 38 22
v 39 86
v 40 65
v 41 24
v 42 61
v 43 83
v 44 77
v 45 13
v 46 20
v 47 5
v 48 27
v 49 112
v 50 24
v 51 89
v 52 5
v 53 49
v 54 8
v 55 45
v 56 44
v 57 102
v 58 69
v 59 43
v 60 92
v 61 78
v 62 125
v 63 122
v 64 121
v 65 34
v 66 19
v 67 31
v 68 16
v 69 33
v 70 18
v 71 20
v 72 113
v 73 78
v 74 87
v 75 57
v 76 136
v 77 64
v 78 54
v 79 96
v 80 47
v 81 39
v 82 33
v 83 50
v 84 116
v 85 118
v 86 25
v 87 36
v 88 119
v 89 46
v 90 58
v 91 3
v 92 22
v 93 48
v 94 71
v 95 112
v 96 63
v 97 9
v 98 58
v 99 61
v 100 30
v 101 90
v 102 116
v 103 22
v 104 70
v 105 60
v 106 128
v 107 131
v 108 7
v 109 31
v 110 11
v 111 86
v 112 57
v 113 102
v 114 53
v 115 53
v 116 57
v 117 54
v 118 55
v 119 40
v 120 15
v 121 6
v 122 66
v 123 20
v 124 50
v 125 43
v 126 72
v 127 61
v 128 18
v 129 87
v 130 64
v 131 12
v 132 23
v 133 107
v 134 50
v 135 13
v 136 46
v 137 89
v 138 3
v 139 119
v 140 30
v 141 41
v 142 66
v 143 79
v 144 94
v 145 82
v 146 73
v 147 59
v 148 48
v 149 94
v 150 91
v 151 109
v 152 69
v 153 5
v 154 74
v 155 128
v 156 71
v 157 53
v 158 13
v 159 77
v 160 5
v 161 23
v 162 16
v 163 71
v 164 93
v 165 27
v 166 73
v 167 35
v 168 123
v 169 106
v 170 20
v 171 43
v 172 43
v 173 9
v 174 51
v 175 32
v 176 58
v 177 80
v 178 18
v 179 97
v 180 24
v 181 19
v 182 132
v 183 34
v 184 105
v 185 41
v 186 49
v 187 123
v 188 101
v 189 58
v 190 23
v 191 105
v 192 118
v 193 93
v 194 40
v 195 14
v 196 0
v 197 19
v 198 109
v 199 55
v 200 65
v 201 5
v 202 106
v 203 14
v 204 15
v 205 68
v 206 31
v 207 29
v 208 13
v 209 26
v 210 65
v 211 65
v 212 43
v 213 17
v 214 89
v 215 69
v 216 25
v 217 46
v 218 3
v 219 8
v 220 52
v 221 29
v 222 33
v 223 87
v 224 111
v 225 9
v 226 117
v 227 76
v 228 19
v 229 4
v 230 114
v 231 26
v 232 29
v 233 117
v 234 74
v 235 80
v 236 73
v 237 80
v 238 0
v 239 82
v 240 0
v 241 48
v 242 82
v 243 63
v 244 75
v 245 20
v 246 4
v 247 84
v 248 6
v 249 104
v 250 10
v 251 113
v 252 39
v 253 78
v 254 65
v 255 121
v 256 93
v 257 113
v 258 121
v 259 68
v 260 54
v 261 130
v 262 127
v 263 28
v 264 8
v 265 39
v 266 130
v 267 49
v 268 88
v 269 31
v 270 61
v 271 31
v 272 57
v 273 50
v 274 35
v 275 28
v 276 96
v 277 62
v 278 57
v 279 26
v 280 18
v 281 35
v 282 34
v 283 12
v 284 1
v 285 109
v 286 106
v 287 88
v 288 126
v 289 116
v 290 97
v 291 23
v 292 33
v 293 34
v 294 37
v 295 112
v 296 60
v 297 47
v 298 64
v 299 23
v 300 105
v 301 99
v 302 25
v 303 48
v 304 136
v 305 66
v 306 137
v 307 98
v 308 75
v 309 7
v 310 49
v 311 100
v 312 76
v 313 97
v 314 100
v 315 128
v 316 45
v 317 69
v 318 121
v 319 55
v 320 12
v 321 101
v 322 100
v 323 86
v 324 57
v 325 47
v 326 11
v 327 71
v 328 20
v 329 4
v 330 24
v 331 67
v 332 63
v 333 12
v 334 95
v 335 17
v 336 35
v 337 11
v 338 80
v 339 4
v 340 91
v 341 70
v 342 94
v 343 102
v 344 123
v 345 16
v 346 102
v 347 54
v 348 42
v 349 72
v 350 91
v 351 62
v 352 76
v 353 15
v 354 124
v 355 28
v 356 48
v 357 5
v 358 5
v 359 45
v 360 103
v 361 41
v 362 74
v 363 23
v 364 43
v 365 51
v 366 45
v 367 85
v 368 85
v 369 72
v 370 99
v 371 70
v 372 103
v 373 95
v 374 113
v 375 65
v 376 22
v 377 2
v 378 104
v 379 132
v 380 99
v 381 38
v 382 32
v 383 56
v 384 28
v 385 52
v 386 122
v 387 64
v 388 110
v 389 113
v 390 106
v 391 36
v 392 0
v 393 8
v 394 103
v 395 44
v 396 87
v 397 98
v 398 44
v 399 13
v 400 62
v 401 67
v 402 52
v 403 111
v 404 21
v 405 94
v 406 38
v 407 41
v 408 6
v 409 67
v 410 105
v 411 69
v 412 120
v 413 16
v 414 85
v 415 53
v 416 25
v 417 55
v 418 68
v 419 91
v 420 29
v 421 32
v 422 18
v 423 84
v 424 72
v 425 1
v 426 4
v 427 6
v 428 54
v 429 46
v 430 68
v 431 46
v 432 78
v 433 137
v 434 81
v 435 63
v 436 98
v 437 38
v 438 35
v 439 51
v 440 25
v 441 99
v 442 76
v 443 4
v 444 81
v 445 74
v 446 126
v 447 59
v 448 89
v 449 49
v 450 68
v 451 24
v 452 16
v 453 80
v 454 12
v 455 102
v 456 36
v 457 25
v 458 109
v 459 76
v 460 17
v 461 112
v 462 48
v 463 2
v 464 52
v 465 17
v 466 87
v 467 104
v 468 98
v 469 121
v 470 48
v 471 61
v 472 96
v 473 67
v 474 118
v 475 77
v 476 97
v 477 25
v 478 31
v 479 97
v 480 83
v 481 6
v 482 72
v 483 51
v 484 108
v 485 75
v 486 28
v 487 32
v 488 81
v 489 107
v 490 21
v 491 79
v 492 55
v 493 47
v 494 79
v 495 63
v 496 16
v 497 66
v 498 64
v 499 29
v 500 18
v 501 96
v 502 128
v 503 22
v 504 70
v 505 69
v 506 73
v 507 15
v 508 95
v 509 36
v 510 45
v 511 80
v 512 99
v 513 56
v 514 80
v 515 19
v 516 5
v 517 74
v 518 42
v 519 125
v 520 110
v 521 0
v 522 13
v 523 17
v 524 18
v 525 48
v 526 86
v 527 13
v 528 6
v 529 17
v 530 105
v 531 20
v 532 85
v 533 113
v 534 77
v 535 84
v 536 92
v 537 74
v 538 131
v 539 50
v 540 62
v 541 102
v 542 133
v 543 42
v 544 5
v 545 49
v 546 30
v 547 55
v 548 1
v 549 62
v 550 10
v 551 100
v 552 17
v 553 68
v 554 19
v 555 129
v 556 86
v 557 111
v 558 115
v 559 73
v 560 8
v 561 86
v 562 56
v 563 11
v 564 21
v 565 85
v 566 130
v 567 9
v 568 121
v 569 8
v 570 84
v 571 43
v 572 7
v 573 133
v 574 67
v 575 90
v 576 110
v 577 12
v 578 33
v 579 51
v 580 88
v 581 81
v 582 40
v 583 75
v 584 44
v 585 26
v 586 61
v 587 26
v 588 25
v 589 16
v 590 41
v 591 11
v 592 1
v 593 28
v 594 78
v 595 8
v 596 3
v 597 89
v 598 87
v 599 16
v 600 90
v 601 36
v 602 46
v 603 29
v 604 23
v 605 7
v 606 13
v 607 59
v 608 63
v 609 102
v 610 54
v 611 101
v 612 123
v 613 31
v 614 90
v 615 88
v 616 63
v 617 53
v 618 46
v 619 127
v 620 0
v 621 42
v 622 85
v 623 40
v 624 14
v 625 133
v 626 10
v 627 12
v 628 85
v 629 112
v 630 18
v 631 7
v 632 129
v 633 31
v 634 21
v 635 92
v 636 100
v 637 60
v 638 73
v 639 24
v 640 56
v 641 5
v 642 8
v 643 3
v 644 43
v 645 6
v 646 34
v 647 9
v 648 76
v 649 27
v 650 104
v 651 20
v 652 55
v 653 66
v 654 3
v 655 66
v 656 104
v 657 44
v 658 34
v 659 32
v 660 74
v 661 37
v 662 69
v 663 28
v 664 132
v 665 29
v 666 3
v 667 71
v 668 30
v 669 45
v 670 14
v 671 84
v 672 96
v 673 86
v 674 50
v 675 34
v 676 24
v 677 27
v 678 67
v 679 52
v 680 19
v 681 136
v 682 100
v 683 36
v 684 0
v 685 77
v 686 99
v 687 52
v 688 69
v 689 83
v 690 101
v 691 93
v 692 56
v 693 57
v 694 37
v 695 30
v 696 26
v 697 52
v 698 2
v 699 36
v 700 103
v 701 49
v 702 114
v 703 29
v 704 51
v 705 36
v 706 7
v 707 21
v 708 45
v 709 29
v 710 79
v 711 10
v 712 104
v 713 75
v 714 88
v 715 33
v 716 48
v 717 86
v 718 15
v 719 21
v 720 78
v 721 31
v 722 45
v 723 39
v 724 27
v 725 2
v 726 108
v 727 92
v 728 114
v 729 107
v 730 0
v 731 4
v 732 70
v 733 81
v 734 68
v 735 33
v 736 46
v 737 79
v 738 44
v 739 32
v 740 124
v 741 35
v 742 81
v 743 95
v 744 110
v 745 7
v 746 115
v 747 118
v 748 76
v 749 94
v 750 14
v 751 49
v 752 90
v 753 89
v 754 1
v 755 32
v 756 24
v 757 52
v 758 14
v 759 88
v 760 120
v 761 124
v 762 81
v 763 11
v 764 54
v 765 1
v 766 47
v 767 72
v 768 79
v 769 44
v 770 118
v 771 65
v 772 67
v 773 90
v 774 65
v 775 79
v 776 96
v 777 74
v 778 68
v 779 23
v 780 25
v 781 126
v 782 47
v 783 84
v 784 33
v 785 71
v 786 50
v 787 11
v 788 37
v 789 23
v 790 44
v 791 75
v 792 2
v 793 70
v 794 72
v 795 47
v 796 57
v 797 64
v 798 84
v 799 56
v 800 131
v 801 13
v 802 93
v 803 122
v 804 117
v 805 116
v 806 53
v 807 97
v 808 32
v 809 9
v 810 18
v 811 38
v 812 10
v 813 52
v 814 58
v 815 82
v 816 61
v 817 70
v 818 37
v 819 38
v 820 98
v 821 38
v 822 117
v 823 130
v 824 119
v 825 16
v 826 72
v 827 89
v 828 16
v 829 70
v 830 66
v 831 125
v 832 77
v 833 3
v 834 50
v 835 85
v 836 27
v 837 83
v 838 58
v 839 112
v 840 62
v 841 38
v 842 7
v 843 135
v 844 34
v 845 21
v 846 15
v 847 52
v 848 19
v 849 94
v 850 30
v 851 9
v 852 12
v 853 88
v 854 50
v 855 106
v 856 35
v 857 115
v 858 100
v 859 39
v 860 108
v 861 14
v 862 33
v 863 58
v 864 77
v 865 64
v 866 83
v 867 120
v 868 40
v 869 80
v 870 71
v 871 2
v 872 1
v 873 26
v 874 122
v 875 46
v 876 106
v 877 37
v 878 95
v 879 46
v 880 91
v 881 116
v 882 22
v 883 21
v 884 60
v 885 62
v 886 86
v 887 68
v 888 50
v 889 60
v 890 72
v 891 117
v 892 53
v 893 23
v 894 9
v 895 56
v 896 105
v 897 83
v 898 60
v 899 116
v 900 107
v 901 39
v 902 129
v 903 101
v 904 90
v 905 36
v 906 3
v 907 53
v 908 127
v 909 27
v 910 12
v 911 1
v 912 21
v 913 30
v 914 4
v 915 110
v 916 14
v 917 59
v 918 60
v 919 40
v 920 11
v 921 96
v 922 15
v 923 18
v 924 118
v 925 63
v 926 41
v 927 114
v 928 108
v 929 59
v 930 92
v 931 84
v 932 111
v 933 60
v 934 62
v 935 40
v 936 111
v 937 131
v 938 58
v 939 98
v 940 1
v 941 55
v 942 134
v 943 26
v 944 32
v 945 35
v 946 82
v 947 95
v 948 35
v 949 9
v 950 92
v 951 17
v 952 123
v 953 91
v 954 14
v 955 125
v 956 83
v 957 90
v 958 61
v 959 108
v 960 43
v 961 40
v 962 38
v 963 10
v 964 62
v 965 10
v 966 30
v 967 105
v 968 87
v 969 135
v 970 30
v 971 110
v 972 39
v 973 82
v 974 27
v 975 42
v 976 0
v 977 90
v 978 19
v 979 34
v 980 10
v 981 41
v 982 126
v 983 59
v 984 2
v 985 75
v 986 4
v 987 34
v 988 53
v 989 105
v 990 104
v 991 94
v 992 73
v 993 28
v 994 76
v 995 42
v 996 8
v 997 28
v 998 125
v 999 59
v 1000 41
